c Standarized MaxSat Instance
c{
c "sha1sum": "ede4690de27ed10cd6b3d6671c4bf91e98552d4a",
c "nvars": 60,
c "ncls": 840,
c "nhards": 0,
c "nhard_len_stats":
c    { "min": 0, "max": 0, "ave": 0.00,
c      "stddev": 0.00 },
c "nsofts": 840,
c "nsoft_len_stats":
c    { "min": 2, "max": 2, "ave": 2.00,
c      "stddev": 0.00 },
c "nsoft_wts": 10,
c "soft_wt_stats":
c    { "min": 1, "max": 10, "ave": 5.61,
c      "stddev": 2.87 }
c}
c------------------------------------------------------------
c Generated after 1 tries
c Graph with 60 nodes and 420 edges, Max edges:1770
p wcnf 60 840 4713
9 1 10 0
9 -1 -10 0
4 1 13 0
4 -1 -13 0
8 1 14 0
8 -1 -14 0
8 1 15 0
8 -1 -15 0
10 1 24 0
10 -1 -24 0
2 1 27 0
2 -1 -27 0
4 1 31 0
4 -1 -31 0
8 1 38 0
8 -1 -38 0
3 1 40 0
3 -1 -40 0
6 1 46 0
6 -1 -46 0
5 1 52 0
5 -1 -52 0
7 2 3 0
7 -2 -3 0
4 2 5 0
4 -2 -5 0
6 2 11 0
6 -2 -11 0
10 2 12 0
10 -2 -12 0
10 2 15 0
10 -2 -15 0
7 2 22 0
7 -2 -22 0
8 2 29 0
8 -2 -29 0
2 2 37 0
2 -2 -37 0
7 2 39 0
7 -2 -39 0
1 2 46 0
1 -2 -46 0
3 2 48 0
3 -2 -48 0
2 2 53 0
2 -2 -53 0
9 3 4 0
9 -3 -4 0
2 3 9 0
2 -3 -9 0
5 3 11 0
5 -3 -11 0
2 3 14 0
2 -3 -14 0
2 3 15 0
2 -3 -15 0
10 3 29 0
10 -3 -29 0
3 3 43 0
3 -3 -43 0
6 3 46 0
6 -3 -46 0
9 4 5 0
9 -4 -5 0
7 4 10 0
7 -4 -10 0
3 4 12 0
3 -4 -12 0
7 4 15 0
7 -4 -15 0
6 4 17 0
6 -4 -17 0
5 4 18 0
5 -4 -18 0
10 4 24 0
10 -4 -24 0
3 4 39 0
3 -4 -39 0
8 4 42 0
8 -4 -42 0
6 4 45 0
6 -4 -45 0
8 4 48 0
8 -4 -48 0
5 4 50 0
5 -4 -50 0
9 4 57 0
9 -4 -57 0
3 4 60 0
3 -4 -60 0
4 5 7 0
4 -5 -7 0
9 5 14 0
9 -5 -14 0
10 5 16 0
10 -5 -16 0
1 5 24 0
1 -5 -24 0
10 5 28 0
10 -5 -28 0
6 5 31 0
6 -5 -31 0
1 5 34 0
1 -5 -34 0
2 5 35 0
2 -5 -35 0
7 5 46 0
7 -5 -46 0
9 5 47 0
9 -5 -47 0
4 5 50 0
4 -5 -50 0
1 5 53 0
1 -5 -53 0
1 6 12 0
1 -6 -12 0
5 6 13 0
5 -6 -13 0
1 6 33 0
1 -6 -33 0
3 6 34 0
3 -6 -34 0
10 6 44 0
10 -6 -44 0
10 6 59 0
10 -6 -59 0
9 7 9 0
9 -7 -9 0
3 7 20 0
3 -7 -20 0
6 7 21 0
6 -7 -21 0
4 7 29 0
4 -7 -29 0
8 7 32 0
8 -7 -32 0
6 7 39 0
6 -7 -39 0
7 7 41 0
7 -7 -41 0
6 7 42 0
6 -7 -42 0
1 7 44 0
1 -7 -44 0
5 7 49 0
5 -7 -49 0
10 7 50 0
10 -7 -50 0
10 8 19 0
10 -8 -19 0
8 8 22 0
8 -8 -22 0
3 8 24 0
3 -8 -24 0
8 8 25 0
8 -8 -25 0
7 8 29 0
7 -8 -29 0
4 8 32 0
4 -8 -32 0
7 8 37 0
7 -8 -37 0
2 8 46 0
2 -8 -46 0
5 8 49 0
5 -8 -49 0
9 8 51 0
9 -8 -51 0
9 8 56 0
9 -8 -56 0
4 8 59 0
4 -8 -59 0
3 9 15 0
3 -9 -15 0
9 9 19 0
9 -9 -19 0
4 9 20 0
4 -9 -20 0
7 9 26 0
7 -9 -26 0
10 9 29 0
10 -9 -29 0
6 9 31 0
6 -9 -31 0
7 9 32 0
7 -9 -32 0
9 9 37 0
9 -9 -37 0
5 9 43 0
5 -9 -43 0
10 9 45 0
10 -9 -45 0
4 9 48 0
4 -9 -48 0
9 9 51 0
9 -9 -51 0
7 9 60 0
7 -9 -60 0
10 10 18 0
10 -10 -18 0
5 10 22 0
5 -10 -22 0
3 10 25 0
3 -10 -25 0
10 10 34 0
10 -10 -34 0
10 10 36 0
10 -10 -36 0
2 10 40 0
2 -10 -40 0
9 10 45 0
9 -10 -45 0
7 10 47 0
7 -10 -47 0
5 10 49 0
5 -10 -49 0
7 10 50 0
7 -10 -50 0
3 10 53 0
3 -10 -53 0
8 10 57 0
8 -10 -57 0
4 10 59 0
4 -10 -59 0
5 11 15 0
5 -11 -15 0
3 11 17 0
3 -11 -17 0
2 11 20 0
2 -11 -20 0
3 11 25 0
3 -11 -25 0
6 11 28 0
6 -11 -28 0
5 11 32 0
5 -11 -32 0
2 11 33 0
2 -11 -33 0
10 11 35 0
10 -11 -35 0
2 11 38 0
2 -11 -38 0
2 11 44 0
2 -11 -44 0
5 11 51 0
5 -11 -51 0
8 11 52 0
8 -11 -52 0
10 11 53 0
10 -11 -53 0
10 11 58 0
10 -11 -58 0
7 11 59 0
7 -11 -59 0
4 12 15 0
4 -12 -15 0
8 12 17 0
8 -12 -17 0
4 12 20 0
4 -12 -20 0
3 12 21 0
3 -12 -21 0
3 12 24 0
3 -12 -24 0
6 12 34 0
6 -12 -34 0
3 12 35 0
3 -12 -35 0
2 12 37 0
2 -12 -37 0
8 12 43 0
8 -12 -43 0
2 12 47 0
2 -12 -47 0
8 12 49 0
8 -12 -49 0
2 12 50 0
2 -12 -50 0
8 13 21 0
8 -13 -21 0
1 13 22 0
1 -13 -22 0
10 13 33 0
10 -13 -33 0
1 13 36 0
1 -13 -36 0
6 13 42 0
6 -13 -42 0
2 13 43 0
2 -13 -43 0
3 13 45 0
3 -13 -45 0
8 13 54 0
8 -13 -54 0
8 13 58 0
8 -13 -58 0
7 14 16 0
7 -14 -16 0
10 14 19 0
10 -14 -19 0
7 14 30 0
7 -14 -30 0
8 14 33 0
8 -14 -33 0
1 14 35 0
1 -14 -35 0
2 14 42 0
2 -14 -42 0
6 14 46 0
6 -14 -46 0
1 15 19 0
1 -15 -19 0
1 15 25 0
1 -15 -25 0
3 15 28 0
3 -15 -28 0
5 15 32 0
5 -15 -32 0
9 15 46 0
9 -15 -46 0
6 15 48 0
6 -15 -48 0
8 15 55 0
8 -15 -55 0
1 16 18 0
1 -16 -18 0
2 16 30 0
2 -16 -30 0
10 16 33 0
10 -16 -33 0
3 16 46 0
3 -16 -46 0
9 16 47 0
9 -16 -47 0
2 16 52 0
2 -16 -52 0
10 16 59 0
10 -16 -59 0
1 17 22 0
1 -17 -22 0
9 17 23 0
9 -17 -23 0
1 17 24 0
1 -17 -24 0
1 17 31 0
1 -17 -31 0
10 17 37 0
10 -17 -37 0
6 17 42 0
6 -17 -42 0
2 17 48 0
2 -17 -48 0
2 17 50 0
2 -17 -50 0
4 17 55 0
4 -17 -55 0
10 17 56 0
10 -17 -56 0
9 17 59 0
9 -17 -59 0
4 18 19 0
4 -18 -19 0
6 18 21 0
6 -18 -21 0
6 18 23 0
6 -18 -23 0
5 18 33 0
5 -18 -33 0
7 18 35 0
7 -18 -35 0
1 18 49 0
1 -18 -49 0
6 18 53 0
6 -18 -53 0
8 18 60 0
8 -18 -60 0
4 19 20 0
4 -19 -20 0
10 19 26 0
10 -19 -26 0
6 19 27 0
6 -19 -27 0
9 19 31 0
9 -19 -31 0
8 19 34 0
8 -19 -34 0
7 19 35 0
7 -19 -35 0
1 19 36 0
1 -19 -36 0
8 19 40 0
8 -19 -40 0
9 19 41 0
9 -19 -41 0
10 19 42 0
10 -19 -42 0
9 19 50 0
9 -19 -50 0
9 19 51 0
9 -19 -51 0
10 19 53 0
10 -19 -53 0
8 19 54 0
8 -19 -54 0
10 19 58 0
10 -19 -58 0
10 19 59 0
10 -19 -59 0
7 19 60 0
7 -19 -60 0
5 20 22 0
5 -20 -22 0
2 20 28 0
2 -20 -28 0
9 20 31 0
9 -20 -31 0
9 20 36 0
9 -20 -36 0
1 20 42 0
1 -20 -42 0
7 20 44 0
7 -20 -44 0
3 20 48 0
3 -20 -48 0
7 20 50 0
7 -20 -50 0
3 20 56 0
3 -20 -56 0
8 21 25 0
8 -21 -25 0
4 21 32 0
4 -21 -32 0
4 21 34 0
4 -21 -34 0
3 21 36 0
3 -21 -36 0
1 21 40 0
1 -21 -40 0
7 21 42 0
7 -21 -42 0
3 21 52 0
3 -21 -52 0
7 21 53 0
7 -21 -53 0
6 21 57 0
6 -21 -57 0
10 21 58 0
10 -21 -58 0
3 21 60 0
3 -21 -60 0
6 22 24 0
6 -22 -24 0
8 22 29 0
8 -22 -29 0
2 22 33 0
2 -22 -33 0
5 22 35 0
5 -22 -35 0
6 22 36 0
6 -22 -36 0
10 22 37 0
10 -22 -37 0
5 22 38 0
5 -22 -38 0
4 22 39 0
4 -22 -39 0
9 22 41 0
9 -22 -41 0
5 22 49 0
5 -22 -49 0
1 22 50 0
1 -22 -50 0
4 22 51 0
4 -22 -51 0
6 22 54 0
6 -22 -54 0
9 22 59 0
9 -22 -59 0
3 23 32 0
3 -23 -32 0
7 23 34 0
7 -23 -34 0
5 23 40 0
5 -23 -40 0
5 23 43 0
5 -23 -43 0
4 23 47 0
4 -23 -47 0
8 23 52 0
8 -23 -52 0
2 23 57 0
2 -23 -57 0
7 23 59 0
7 -23 -59 0
1 23 60 0
1 -23 -60 0
5 24 26 0
5 -24 -26 0
7 24 38 0
7 -24 -38 0
7 24 40 0
7 -24 -40 0
7 24 42 0
7 -24 -42 0
4 24 43 0
4 -24 -43 0
2 24 44 0
2 -24 -44 0
7 24 45 0
7 -24 -45 0
7 24 53 0
7 -24 -53 0
8 24 56 0
8 -24 -56 0
4 25 26 0
4 -25 -26 0
8 25 30 0
8 -25 -30 0
3 25 31 0
3 -25 -31 0
10 25 36 0
10 -25 -36 0
7 25 44 0
7 -25 -44 0
7 25 46 0
7 -25 -46 0
3 25 47 0
3 -25 -47 0
6 25 49 0
6 -25 -49 0
1 25 51 0
1 -25 -51 0
3 25 53 0
3 -25 -53 0
9 25 55 0
9 -25 -55 0
7 26 27 0
7 -26 -27 0
1 26 31 0
1 -26 -31 0
2 26 40 0
2 -26 -40 0
4 26 46 0
4 -26 -46 0
6 26 50 0
6 -26 -50 0
6 26 51 0
6 -26 -51 0
7 26 52 0
7 -26 -52 0
3 26 56 0
3 -26 -56 0
8 26 57 0
8 -26 -57 0
3 27 30 0
3 -27 -30 0
4 27 31 0
4 -27 -31 0
2 27 34 0
2 -27 -34 0
10 27 39 0
10 -27 -39 0
1 27 45 0
1 -27 -45 0
9 27 49 0
9 -27 -49 0
4 27 50 0
4 -27 -50 0
2 27 53 0
2 -27 -53 0
5 27 57 0
5 -27 -57 0
10 27 59 0
10 -27 -59 0
10 28 32 0
10 -28 -32 0
8 28 36 0
8 -28 -36 0
7 28 45 0
7 -28 -45 0
2 28 59 0
2 -28 -59 0
7 28 60 0
7 -28 -60 0
4 29 30 0
4 -29 -30 0
8 29 33 0
8 -29 -33 0
10 29 36 0
10 -29 -36 0
10 29 37 0
10 -29 -37 0
9 29 42 0
9 -29 -42 0
3 29 43 0
3 -29 -43 0
8 29 47 0
8 -29 -47 0
6 29 54 0
6 -29 -54 0
3 29 57 0
3 -29 -57 0
10 30 34 0
10 -30 -34 0
10 30 35 0
10 -30 -35 0
9 30 40 0
9 -30 -40 0
5 30 41 0
5 -30 -41 0
6 30 43 0
6 -30 -43 0
2 30 52 0
2 -30 -52 0
3 30 53 0
3 -30 -53 0
9 30 57 0
9 -30 -57 0
5 31 32 0
5 -31 -32 0
5 31 37 0
5 -31 -37 0
9 31 39 0
9 -31 -39 0
5 31 41 0
5 -31 -41 0
3 31 44 0
3 -31 -44 0
2 31 54 0
2 -31 -54 0
7 31 59 0
7 -31 -59 0
8 31 60 0
8 -31 -60 0
2 32 33 0
2 -32 -33 0
7 32 36 0
7 -32 -36 0
5 32 37 0
5 -32 -37 0
9 32 44 0
9 -32 -44 0
8 32 46 0
8 -32 -46 0
2 33 36 0
2 -33 -36 0
3 33 40 0
3 -33 -40 0
5 33 51 0
5 -33 -51 0
2 33 54 0
2 -33 -54 0
2 33 56 0
2 -33 -56 0
4 34 40 0
4 -34 -40 0
4 34 48 0
4 -34 -48 0
10 34 49 0
10 -34 -49 0
10 34 51 0
10 -34 -51 0
7 34 58 0
7 -34 -58 0
9 34 59 0
9 -34 -59 0
9 35 36 0
9 -35 -36 0
5 35 37 0
5 -35 -37 0
4 35 40 0
4 -35 -40 0
4 35 41 0
4 -35 -41 0
7 35 43 0
7 -35 -43 0
7 35 45 0
7 -35 -45 0
3 35 49 0
3 -35 -49 0
2 35 50 0
2 -35 -50 0
1 35 51 0
1 -35 -51 0
2 35 52 0
2 -35 -52 0
7 35 54 0
7 -35 -54 0
4 36 37 0
4 -36 -37 0
3 36 43 0
3 -36 -43 0
4 36 49 0
4 -36 -49 0
1 36 50 0
1 -36 -50 0
5 36 52 0
5 -36 -52 0
10 36 54 0
10 -36 -54 0
6 37 43 0
6 -37 -43 0
3 37 44 0
3 -37 -44 0
7 37 47 0
7 -37 -47 0
8 37 49 0
8 -37 -49 0
5 37 52 0
5 -37 -52 0
2 38 46 0
2 -38 -46 0
9 38 53 0
9 -38 -53 0
7 38 55 0
7 -38 -55 0
6 38 57 0
6 -38 -57 0
3 38 60 0
3 -38 -60 0
6 39 40 0
6 -39 -40 0
5 39 43 0
5 -39 -43 0
9 39 53 0
9 -39 -53 0
4 39 54 0
4 -39 -54 0
3 39 55 0
3 -39 -55 0
4 39 56 0
4 -39 -56 0
8 39 60 0
8 -39 -60 0
7 40 41 0
7 -40 -41 0
10 40 45 0
10 -40 -45 0
4 40 47 0
4 -40 -47 0
9 40 50 0
9 -40 -50 0
2 40 51 0
2 -40 -51 0
5 40 59 0
5 -40 -59 0
1 41 42 0
1 -41 -42 0
8 41 43 0
8 -41 -43 0
8 41 46 0
8 -41 -46 0
3 41 51 0
3 -41 -51 0
2 41 57 0
2 -41 -57 0
9 41 58 0
9 -41 -58 0
8 42 45 0
8 -42 -45 0
1 42 48 0
1 -42 -48 0
5 42 50 0
5 -42 -50 0
10 42 60 0
10 -42 -60 0
8 43 48 0
8 -43 -48 0
3 43 53 0
3 -43 -53 0
5 43 55 0
5 -43 -55 0
9 44 49 0
9 -44 -49 0
1 44 51 0
1 -44 -51 0
1 44 53 0
1 -44 -53 0
4 44 54 0
4 -44 -54 0
4 45 53 0
4 -45 -53 0
7 45 54 0
7 -45 -54 0
9 45 60 0
9 -45 -60 0
2 46 49 0
2 -46 -49 0
1 46 52 0
1 -46 -52 0
1 46 53 0
1 -46 -53 0
5 46 54 0
5 -46 -54 0
8 46 56 0
8 -46 -56 0
7 46 58 0
7 -46 -58 0
5 47 51 0
5 -47 -51 0
2 47 52 0
2 -47 -52 0
6 48 56 0
6 -48 -56 0
6 49 51 0
6 -49 -51 0
6 49 53 0
6 -49 -53 0
6 49 58 0
6 -49 -58 0
4 50 57 0
4 -50 -57 0
4 51 52 0
4 -51 -52 0
9 51 59 0
9 -51 -59 0
5 51 60 0
5 -51 -60 0
2 52 53 0
2 -52 -53 0
7 53 55 0
7 -53 -55 0
6 53 57 0
6 -53 -57 0
7 53 58 0
7 -53 -58 0
6 54 55 0
6 -54 -55 0
3 54 60 0
3 -54 -60 0
9 55 56 0
9 -55 -56 0
1 56 57 0
1 -56 -57 0
1 56 59 0
1 -56 -59 0
10 56 60 0
10 -56 -60 0
2 58 59 0
2 -58 -59 0
